unsat
( c0
  c1
  c118
  c12
  c135
  c136
  c137
  c138
  c139
  c140
  c141
  c142
  c143
  c144
  c149
  c15
  c154
  c163
  c167
  c169
  c176
  c178
  c18
  c182
  c185
  c19
  c2
  c20
  c203
  c208
  c217
  c221
  c223
  c230
  c232
  c239
  c241
  c257
  c262
  c271
  c275
  c277
  c284
  c286
  c293
  c295
  c30
  c311
  c316
  c32
  c325
  c329
  c33
  c331
  c338
  c340
  c347
  c349
  c36
  c363
  c364
  c365
  c37
  c370
  c379
  c38
  c383
  c385
  c387
  c389
  c392
  c394
  c401
  c403
  c48
  c50
  c51
  c510
  c512
  c513
  c54
  c546
  c55
  c56
  c614
  c625
  c647
  c651
  c66
  c68
  c69
  c695
  c699
  c702
  c703
  c704
  c705
  c706
  c711
  c712
  c713
  c714
  c715
  c716
  c717
  c718
  c719
  c72
  c73
  c730
  c731
  c732
  c733
  c734
  c74
  c761
  c765
  c770
  c774
  c779
  c783
  c788
  c792
  c797
  c801
  c805
  c808
  c817
  c820
  c826
  c829
  c835
  c838
  c84
  c847
  c852
  c856
  c861
  c863
  c867
  c869
  c87
  c872
  c874
  c878
  c880
  c883
  c885
  c889
  c891
  c894
  c896
  c898
  c900
  c906
  c908
  c909 )
